Ce  O                                   
   1.00000000000000     
    11.0016384571316888    0.0000000000000000    0.0000000000000000
     0.0000000000000007   11.0016384571316888    0.0000000000000000
     0.0000000000000007    0.0000000000000007   11.0016384571316888
   Ce   O 
    32    63
Direct
  0.9994795943949484  0.0006149531612181  0.9994934357419964
  0.9996029667530877  0.4996279956008536  0.4994276394226489
  0.2509758166427076  0.7500846681432876  0.5001075506721051
  0.4994350565280712  0.4996659769235094  0.9996358084665928
  0.5001076280773518  0.7501045768942518  0.2509801517481307
  0.7505717447036062  0.4996403955173321  0.2503535622921476
  0.7499026520204239  0.7500861353138291  0.9990084388103000
  0.2479861491645607  0.7499898804480196  0.0020214373881444
  0.2493222276954228  0.5004933973780012  0.2493532171309383
  0.0020103272625462  0.7499902553777105  0.2479826729825234
  0.0006599349475422  0.5005044972191115  0.0006781937778939
  0.7502290184673015  0.2498170003872460  0.4997385838342439
  0.9990296682550763  0.7500790006532796  0.7499055155390835
  0.4999787069220787  0.0022784864074694  0.0019220012665357
  0.4897200237929198  0.7582249786489896  0.7603265955065481
  0.7505066363465218  0.9987429279598814  0.7505145213388786
  0.2480762822919189  0.0022605050497049  0.7500316698129765
  0.9999334920932483  0.2511926910332747  0.2500603576919431
  0.2505047675080547  0.0006198315793284  0.2505052584581833
  0.2500535247996751  0.2511988001847740  0.9999383300391145
  0.4995140109467187  0.9987232046268133  0.4994967496687863
  0.4997350774190821  0.2497908718957618  0.7502104561035310
  0.2492602194343831  0.2496924009534425  0.5005916915270063
  0.7500329763502762  0.0022639381202154  0.2480868358913355
  0.7493957751904787  0.2496988982480630  0.0007529882502268
  0.7603374680860924  0.7581848549907306  0.4897291735275004
  0.0019118285594075  0.0022741647628095  0.4999678269711652
  0.0007353492380346  0.2496690221980629  0.7493787004685899
  0.5006010432091372  0.2497013307083904  0.2492672524453710
  0.2503864806433924  0.4996348679953329  0.7505777884907587
  0.4934723220693371  0.4914191579324338  0.4934705139975932
  0.7564913440759184  0.4913595778092628  0.7565473365783575
  0.8743639031014396  0.1223396418496421  0.8743806260238500
  0.6211252952769470  0.3700763570309107  0.8813745033615703
  0.6253482824627028  0.1243441716942684  0.8748164828145732
  0.8815078146926965  0.3700497371464948  0.6210674820531779
  0.6249921806007066  0.1151775546414129  0.6250165677231578
  0.8751024984132627  0.1254099257729564  0.1248011076267517
  0.8798858685045232  0.3699902167613942  0.8798379818678157
  0.8747246983995254  0.8751791010060117  0.1225793894459315
  0.8748022534980109  0.1242506009582200  0.6253701461199555
  0.8728960029498083  0.8746024660115026  0.8728650238182709
  0.6196041158641989  0.6297499251754317  0.8639903912440943
  0.6224200259882906  0.8788965300532823  0.8769550519647495
  0.8795517598298304  0.6284105933276862  0.8797282796103332
  0.8769692449554896  0.8788037252461010  0.6224233373885895
  0.6249553013671587  0.3711944230155879  0.6249041439700349
  0.8746662270156378  0.6254523829196970  0.1250033450679453
  0.8786390070134686  0.8781486372034735  0.3713712154816591
  0.6304360973617307  0.6296856935932951  0.3861284192186645
  0.6275869328856274  0.8788271304138462  0.3730419217557639
  0.8790948018546203  0.6269516238608333  0.3709242260275758
  0.6249988367318906  0.3761708376960087  0.1249308577975228
  0.6249839100925030  0.6256042524692091  0.1250518650429200
  0.6249860963250384  0.8753718706174354  0.1250009504688947
  0.8750712348694805  0.3768300425647340  0.3748491809712462
  0.3861278523597420  0.6297000648339619  0.6303957287752908
  0.6288076545618466  0.3700365239017884  0.3684608652832608
  0.1249673747074098  0.3761936851803256  0.6250108642268870
  0.3749018033912748  0.3768068203349699  0.8750957321981474
  0.1248005145338453  0.1254110961024182  0.8751030967613147
  0.1268518845418072  0.3756590195100600  0.8748004486104364
  0.3747108636296517  0.1263790000916316  0.8752788142907946
  0.3684214084276007  0.3701160436818753  0.6288203626520925
  0.1250106394161463  0.1253503830571674  0.6249954671886826
  0.3748847593680011  0.1254231149816292  0.1252065032314533
  0.1250007004348106  0.3754642435846520  0.1249968941396631
  0.3701180082316284  0.3699613496141225  0.3701578478194136
  0.1252078127067335  0.1254116181411433  0.3748851232887773
  0.1231288549610099  0.3756608171064855  0.3752000677630960
  0.3756426843208445  0.1222823398158255  0.3756471861008848
  0.3751998402685501  0.3756801254515665  0.1231475361533327
  0.1249996638348350  0.1253428473883247  0.1249954512383198
  0.3752088788111294  0.1242756279977328  0.6246460741736328
  0.1249964169561650  0.6255072581458094  0.1249963402602816
  0.3752830282780906  0.8751876348845471  0.1274248674957974
  0.3704152012848994  0.6283340200788743  0.3703262942573673
  0.8752897330549061  0.1263838042143490  0.3747230354075697
  0.8747973611504136  0.3756463773694207  0.1268179781715020
  0.6250044561849677  0.1253498995789926  0.1250109591995212
  0.6250097796576810  0.8484002604954597  0.6249928467869665
  0.1249973221348810  0.8753736116434965  0.6250005875747107
  0.3713524554960443  0.8781628968890800  0.8786487089951223
  0.1249571261918376  0.6254666792072712  0.8746525981248396
  0.6246392633644646  0.1242800416556875  0.3752098845606398
  0.1225824529974986  0.8751721184714683  0.8747183577707744
  0.3730237516753263  0.8788353056882414  0.6275685124814032
  0.1250759135864214  0.6256218180592015  0.6250041710382490
  0.3753259210138467  0.6254962859341262  0.1250508115756688
  0.1250070157635079  0.8757179853481318  0.1250042384871364
  0.3771105664112326  0.8745317510425679  0.3771157721153173
  0.1250489807669339  0.6254916644164652  0.3753471027925173
  0.1274297546156333  0.8751798538519751  0.3752936052194045
  0.3709085924980826  0.6269393387256912  0.8791046720987197
  0.8640812044664372  0.6296199883716227  0.6196698389847697
 
  0.00000000E+00  0.00000000E+00  0.00000000E+00
  0.00000000E+00  0.00000000E+00  0.00000000E+00
  0.00000000E+00  0.00000000E+00  0.00000000E+00
  0.00000000E+00  0.00000000E+00  0.00000000E+00
  0.00000000E+00  0.00000000E+00  0.00000000E+00
  0.00000000E+00  0.00000000E+00  0.00000000E+00
  0.00000000E+00  0.00000000E+00  0.00000000E+00
  0.00000000E+00  0.00000000E+00  0.00000000E+00
  0.00000000E+00  0.00000000E+00  0.00000000E+00
  0.00000000E+00  0.00000000E+00  0.00000000E+00
  0.00000000E+00  0.00000000E+00  0.00000000E+00
  0.00000000E+00  0.00000000E+00  0.00000000E+00
  0.00000000E+00  0.00000000E+00  0.00000000E+00
  0.00000000E+00  0.00000000E+00  0.00000000E+00
  0.00000000E+00  0.00000000E+00  0.00000000E+00
  0.00000000E+00  0.00000000E+00  0.00000000E+00
  0.00000000E+00  0.00000000E+00  0.00000000E+00
  0.00000000E+00  0.00000000E+00  0.00000000E+00
  0.00000000E+00  0.00000000E+00  0.00000000E+00
  0.00000000E+00  0.00000000E+00  0.00000000E+00
  0.00000000E+00  0.00000000E+00  0.00000000E+00
  0.00000000E+00  0.00000000E+00  0.00000000E+00
  0.00000000E+00  0.00000000E+00  0.00000000E+00
  0.00000000E+00  0.00000000E+00  0.00000000E+00
  0.00000000E+00  0.00000000E+00  0.00000000E+00
  0.00000000E+00  0.00000000E+00  0.00000000E+00
  0.00000000E+00  0.00000000E+00  0.00000000E+00
  0.00000000E+00  0.00000000E+00  0.00000000E+00
  0.00000000E+00  0.00000000E+00  0.00000000E+00
  0.00000000E+00  0.00000000E+00  0.00000000E+00
  0.00000000E+00  0.00000000E+00  0.00000000E+00
  0.00000000E+00  0.00000000E+00  0.00000000E+00
  0.00000000E+00  0.00000000E+00  0.00000000E+00
  0.00000000E+00  0.00000000E+00  0.00000000E+00
  0.00000000E+00  0.00000000E+00  0.00000000E+00
  0.00000000E+00  0.00000000E+00  0.00000000E+00
  0.00000000E+00  0.00000000E+00  0.00000000E+00
  0.00000000E+00  0.00000000E+00  0.00000000E+00
  0.00000000E+00  0.00000000E+00  0.00000000E+00
  0.00000000E+00  0.00000000E+00  0.00000000E+00
  0.00000000E+00  0.00000000E+00  0.00000000E+00
  0.00000000E+00  0.00000000E+00  0.00000000E+00
  0.00000000E+00  0.00000000E+00  0.00000000E+00
  0.00000000E+00  0.00000000E+00  0.00000000E+00
  0.00000000E+00  0.00000000E+00  0.00000000E+00
  0.00000000E+00  0.00000000E+00  0.00000000E+00
  0.00000000E+00  0.00000000E+00  0.00000000E+00
  0.00000000E+00  0.00000000E+00  0.00000000E+00
  0.00000000E+00  0.00000000E+00  0.00000000E+00
  0.00000000E+00  0.00000000E+00  0.00000000E+00
  0.00000000E+00  0.00000000E+00  0.00000000E+00
  0.00000000E+00  0.00000000E+00  0.00000000E+00
  0.00000000E+00  0.00000000E+00  0.00000000E+00
  0.00000000E+00  0.00000000E+00  0.00000000E+00
  0.00000000E+00  0.00000000E+00  0.00000000E+00
  0.00000000E+00  0.00000000E+00  0.00000000E+00
  0.00000000E+00  0.00000000E+00  0.00000000E+00
  0.00000000E+00  0.00000000E+00  0.00000000E+00
  0.00000000E+00  0.00000000E+00  0.00000000E+00
  0.00000000E+00  0.00000000E+00  0.00000000E+00
  0.00000000E+00  0.00000000E+00  0.00000000E+00
  0.00000000E+00  0.00000000E+00  0.00000000E+00
  0.00000000E+00  0.00000000E+00  0.00000000E+00
  0.00000000E+00  0.00000000E+00  0.00000000E+00
  0.00000000E+00  0.00000000E+00  0.00000000E+00
  0.00000000E+00  0.00000000E+00  0.00000000E+00
  0.00000000E+00  0.00000000E+00  0.00000000E+00
  0.00000000E+00  0.00000000E+00  0.00000000E+00
  0.00000000E+00  0.00000000E+00  0.00000000E+00
  0.00000000E+00  0.00000000E+00  0.00000000E+00
  0.00000000E+00  0.00000000E+00  0.00000000E+00
  0.00000000E+00  0.00000000E+00  0.00000000E+00
  0.00000000E+00  0.00000000E+00  0.00000000E+00
  0.00000000E+00  0.00000000E+00  0.00000000E+00
  0.00000000E+00  0.00000000E+00  0.00000000E+00
  0.00000000E+00  0.00000000E+00  0.00000000E+00
  0.00000000E+00  0.00000000E+00  0.00000000E+00
  0.00000000E+00  0.00000000E+00  0.00000000E+00
  0.00000000E+00  0.00000000E+00  0.00000000E+00
  0.00000000E+00  0.00000000E+00  0.00000000E+00
  0.00000000E+00  0.00000000E+00  0.00000000E+00
  0.00000000E+00  0.00000000E+00  0.00000000E+00
  0.00000000E+00  0.00000000E+00  0.00000000E+00
  0.00000000E+00  0.00000000E+00  0.00000000E+00
  0.00000000E+00  0.00000000E+00  0.00000000E+00
  0.00000000E+00  0.00000000E+00  0.00000000E+00
  0.00000000E+00  0.00000000E+00  0.00000000E+00
  0.00000000E+00  0.00000000E+00  0.00000000E+00
  0.00000000E+00  0.00000000E+00  0.00000000E+00
  0.00000000E+00  0.00000000E+00  0.00000000E+00
  0.00000000E+00  0.00000000E+00  0.00000000E+00
  0.00000000E+00  0.00000000E+00  0.00000000E+00
  0.00000000E+00  0.00000000E+00  0.00000000E+00
  0.00000000E+00  0.00000000E+00  0.00000000E+00
  0.00000000E+00  0.00000000E+00  0.00000000E+00
