Geometry = GenFormat {
24 S
Ce O
1   1    0.003741848212175    0.003741848212175   -0.000000000000000
2   1    2.753962124000000    2.753962124000000   -0.000000000000000
3   1    0.000000000000000    2.753962124000000    2.753962124000000
4   1    2.753962124000000    5.507924247999999    2.753962124000000
5   1    2.753962124000001   -0.000000000000000    2.753962123999998
6   1    5.507924248000000    2.753962124000000    2.753962123999998
7   1    2.753962124000001    2.753962124000000    5.507924247999998
8   1    5.507924248000000    5.507924247999999    5.507924247999998
9   2    1.376981062000000    1.376981062000000    1.376981062000000
10   2    4.130943185999999    4.130943185999999    1.376981061999999
11   2    1.376981062000000    4.130943186000000    4.130943185999999
12   2    4.130943186000000    6.884905310000000    4.130943185999999
13   2    4.130943186000001    1.376981062000000    4.130943185999998
14   2    6.884905310000001    4.130943186000000    4.130943185999998
15   2    4.130943186000001    4.130943186000000    6.884905309999999
16   2    6.884905310000001    6.884905310000000    6.884905309999998
17   2    4.130943186000000    4.130943186000000    4.130943185999999
18   2    6.884905310000000    6.884905310000000    4.130943185999999
19   2    4.130943186000001    6.884905310000000    6.884905310000000
20   2    6.884905310000000    9.638867434000000    6.884905310000000
21   2    6.884905310000000    4.130943185999999    6.884905309999997
22   2    9.638867434000000    6.884905310000001    6.884905309999997
23   2    6.884905310000001    6.884905310000000    9.638867433999998
24   2    9.638867434000000    9.638867433999998    9.638867433999998
0.0 0.0 0.0
5.507924248000000    5.507924248000000    0.000000000000000
0.000000000000000    5.507924248000000    5.507924248000000
5.507924248000000    0.000000000000000    5.507924248000000
}
Driver = LBFGS {
  MovedAtoms = 1:-1
  MaxForceComponent = 1E-4
  MaxSteps = 0
  OutputPrefix = "test"
  LatticeOpt = Yes
  MaxAtomStep = 0.10000000000000001
  AppendGeometries = No
  Constraints = {}
  LineSearch = Yes
  oldLineSearch = Yes
  Memory = 20
  Pressure = 0.0000000000000000
  FixAngles = No
  Isotropic = No
  MaxLatticeStep = 0.20000000000000001
  StepSize = 100.00000000000000
}
Hamiltonian = DFTB {
  charge = 0.0
  SCC = Yes
  ShellResolvedSCC = Yes
  SCCTolerance = 1.0e-6
  MaxSCCIterations = 10000
  Mixer = Broyden {
    MixingParameter = 0.20000000000000001
    InverseJacobiWeight = 1.0000000000000000E-002
    MinimalWeight = 1.0000000000000000
    MaximalWeight = 100000.00000000000
    WeightFactor = 1.0000000000000000E-002
  }
  KPointsAndWeights = SupercellFolding {
4      0      0
0      4      0
0      0     4
0.000000   0.000000   0.000000
  }
  OrbitalPotential = {
    Functional = {
FLL
    }
    Ce = {
      Shells = {
3
      }
      UJ = 0.091871233279435541
    }
    Ce = {
      Shells = {
4
      }
      UJ = 0.07313289799999999
    }
  }
  SlaterKosterFiles = Type2FileNames {
    Prefix = "../../../SKF-FILES/REFITTED/"
    Separator = "-"
    Suffix = ".skf"
    LowerCaseTypeName = No
  }
  MaxAngularMomentum = {
    Ce = "f"
    O = "p"
  }
  Filling = Fermi {
    Temperature [Kelvin] = 200.0
    IndependentKFilling = No
  }
  Differentiation = FiniteDiff {
    Delta = 1.0000000000000000E-002
  }
  PolynomialRepulsive = {}
  OldSKInterpolation = No
  RangeSeparated = None {}
  ReadInitialCharges = No
  InitialCharges = {}
  HCorrection = None {}
  ElectricField = {}
  Solver = RelativelyRobust {}
  OnSiteCorrection = {}
  Dispersion = {}
  Electrostatics = GammaFunctional {}
  ThirdOrder = No
  ThirdOrderFull = No
  ForceEvaluation = "Traditional"
  EwaldParameter = 0.0000000000000000
  EwaldTolerance = 1.0000000000000001E-009
  ConvergentSCCOnly = Yes
  SpinPolarisation = {}
  Solvation = {}
}
Options = {
  WriteDetailedOut = Yes
  WriteAutotestTag = Yes
  WriteDetailedXML = No
  WriteResultsTag = Yes
  RandomSeed = 0
  WriteHS = No
  WriteRealHS = No
  MinimiseMemoryUsage = No
  ShowFoldedCoords = No
  TimingVerbosity = 1
  WriteChargesAsText = No
}
ParserOptions = {
  ParserVersion = 10
  WriteHSDInput = Yes
  StopAfterParsing = No
  IgnoreUnprocessedNodes = No
}
Analysis = {
  ProjectStates = {}
  WriteEigenvectors = No
  WriteBandOut = Yes
  MullikenAnalysis = Yes
  AtomResolvedEnergies = No
  CalculateForces = Yes
  WriteNetCharges = No
}
ExcitedState = {}
Reks = None {}
