Geometry = GenFormat {
<<<in.gen
}
Driver = LBFGS {
  MovedAtoms = 1:-1
  MaxForceComponent = 1E-4
  MaxSteps = 2134
  OutputPrefix = "Optimized"
  LatticeOpt = Yes
  FixAngles = Yes
  MaxAtomStep = 0.10000000000000001
  AppendGeometries = No
  #ConvergentForcesOnly = Yes
  Constraints = {}
}
Hamiltonian = DFTB {
  charge = 0.0
  SCC = Yes
  ShellResolvedSCC = Yes
  SCCTolerance = 1.0e-6
  MaxSCCIterations = 10000
  Mixer = Broyden {
    MixingParameter = 0.20000000000000001
    InverseJacobiWeight = 1.0000000000000000E-002
    MinimalWeight = 1.0000000000000000
    MaximalWeight = 100000.00000000000
    WeightFactor = 1.0000000000000000E-002
  }
KPointsAndWeights = SupercellFolding {
4      0      0
0      4      0
0      0     4
0.000000   0.000000   0.000000
  }

  OrbitalPotential = {
  Functional = {FLL}
    Ce = {
    Shells = {3}
    UJ = 0.091871233279435541
     }
    Ce = {
    Shells = {4}
    UJ = 0.07313289799999999
     }
    }

  SlaterKosterFiles = Type2FileNames {
    Prefix = "../../SKF-FILES/REFITTED/"
    Separator = "-"
    Suffix = ".skf"
    LowerCaseTypeName = No
  }
  MaxAngularMomentum = {
    Ce = "f"
    O = "p"
  }
  Filling = Fermi {
    Temperature [Kelvin] = 200.0
  }
  Differentiation = FiniteDiff {
    Delta = 1.0000000000000000E-002
  }
  PolynomialRepulsive = {}
  OldSKInterpolation = No
  RangeSeparated = None {}
  ReadInitialCharges = No
  InitialCharges = {}
  HCorrection = None {}
  ElectricField = {}
  Solver = RelativelyRobust {}
  OnSiteCorrection = {}
  Dispersion = {}
  Electrostatics = GammaFunctional {}
  ThirdOrder = No
  ThirdOrderFull = No
  ForceEvaluation = "Traditional"
}
Options = {
  WriteDetailedOut = Yes
  WriteAutotestTag = Yes
  WriteDetailedXML = No
  WriteResultsTag = Yes
  RandomSeed = 0
  WriteHS = No
  WriteRealHS = No
  MinimiseMemoryUsage = No
  ShowFoldedCoords = No
  TimingVerbosity = 1
  WriteChargesAsText = No
}
ParserOptions = {
  ParserVersion = 8
  WriteHSDInput = Yes
  StopAfterParsing = No
  IgnoreUnprocessedNodes = No
}
Analysis = {
  ProjectStates = {}
  WriteEigenvectors = No
  WriteBandOut = Yes
  MullikenAnalysis = Yes
  AtomResolvedEnergies = No
  CalculateForces = Yes
}
ExcitedState = {}
