Geometry = GenFormat {
24  S
Ce   O
1      1      0.000000000000000      0.000000000000000      0.000000000000000
2      1      2.750409614282922      2.750409614282922      0.000000000000000
3      1      0.000000000000000      2.750409614282922      2.750409614282922
4      1      2.750409614282922      5.500819228565844      2.750409614282922
5      1      2.750409614282922      0.000000000000000      2.750409614282922
6      1      5.500819228565844      2.750409614282922      2.750409614282922
7      1      2.750409614282922      2.750409614282922      5.500819228565844
8      1      5.500819228565844      5.500819228565844      5.500819228565844
9      2      1.375204807141461      1.375204807141461      1.375204807141461
10     2      4.125614421424383      4.125614421424383      1.375204807141461
11     2      1.375204807141461      4.125614421424383      4.125614421424383
12     2      4.125614421424383      6.876024035707306      4.125614421424383
13     2      4.125614421424383      1.375204807141461      4.125614421424383
14     2      6.876024035707306      4.125614421424383      4.125614421424383
15     2      4.125614421424383      4.125614421424383      6.876024035707306
16     2      6.876024035707306      6.876024035707306      6.876024035707306
17     2      4.125614421424383      4.125614421424383      4.125614421424383
18     2      6.876024035707306      6.876024035707306      4.125614421424383
19     2      4.125614421424383      6.876024035707306      6.876024035707306
20     2      6.876024035707306      9.626433649990227      6.876024035707306
21     2      6.876024035707306      4.125614421424383      6.876024035707306
22     2      9.626433649990227      6.876024035707306      6.876024035707306
23     2      6.876024035707306      6.876024035707306      9.626433649990227
24     2      9.626433649990227      9.626433649990227      9.626433649990227
0.000000000000000      0.000000000000000      0.000000000000000
5.500819228565844      5.500819228565844      0.000000000000000
0.000000000000000      5.500819228565844      5.500819228565844
5.500819228565844      0.000000000000000      5.500819228565844
}
Driver = LBFGS {
  MovedAtoms = 1:-1
  MaxForceComponent = 1E-4
  MaxSteps = 2134
  OutputPrefix = "Optimized"
  LatticeOpt = Yes
  FixAngles = Yes
  MaxAtomStep = 0.10000000000000001
  AppendGeometries = No
  Constraints = {}
  LineSearch = Yes
  oldLineSearch = Yes
  Memory = 20
  Pressure = 0.0000000000000000
  FixLengths = {
 No No No
  }
  MaxLatticeStep = 0.20000000000000001
  StepSize = 100.00000000000000
}
Hamiltonian = DFTB {
  charge = 0.0
  SCC = Yes
  ShellResolvedSCC = Yes
  SCCTolerance = 1.0e-6
  MaxSCCIterations = 10000
  Mixer = Broyden {
    MixingParameter = 0.20000000000000001
    InverseJacobiWeight = 1.0000000000000000E-002
    MinimalWeight = 1.0000000000000000
    MaximalWeight = 100000.00000000000
    WeightFactor = 1.0000000000000000E-002
  }
  KPointsAndWeights = SupercellFolding {
4      0      0
0      4      0
0      0     4
0.000000   0.000000   0.000000
  }
  OrbitalPotential = {
    Functional = {
FLL
    }
    Ce = {
      Shells = {
3
      }
      UJ = 0.091871233279435541
    }
    Ce = {
      Shells = {
4
      }
      UJ = 0.07313289799999999
    }
  }
  SlaterKosterFiles = Type2FileNames {
    Prefix = "../../SKF-FILES/REFITTED/"
    Separator = "-"
    Suffix = ".skf"
    LowerCaseTypeName = No
  }
  MaxAngularMomentum = {
    Ce = "f"
    O = "p"
  }
  Filling = Fermi {
    Temperature [Kelvin] = 200.0
    IndependentKFilling = No
  }
  Differentiation = FiniteDiff {
    Delta = 1.0000000000000000E-002
  }
  PolynomialRepulsive = {}
  OldSKInterpolation = No
  RangeSeparated = None {}
  ReadInitialCharges = No
  InitialCharges = {}
  HCorrection = None {}
  ElectricField = {}
  Solver = RelativelyRobust {}
  OnSiteCorrection = {}
  Dispersion = {}
  Electrostatics = GammaFunctional {}
  ThirdOrder = No
  ThirdOrderFull = No
  ForceEvaluation = "Traditional"
  EwaldParameter = 0.0000000000000000
  EwaldTolerance = 1.0000000000000001E-009
  ConvergentSCCOnly = Yes
  SpinPolarisation = {}
  Solvation = {}
}
Options = {
  WriteDetailedOut = Yes
  WriteAutotestTag = Yes
  WriteDetailedXML = No
  WriteResultsTag = Yes
  RandomSeed = 0
  WriteHS = No
  WriteRealHS = No
  MinimiseMemoryUsage = No
  ShowFoldedCoords = No
  TimingVerbosity = 1
  WriteChargesAsText = No
}
ParserOptions = {
  ParserVersion = 10
  WriteHSDInput = Yes
  StopAfterParsing = No
  IgnoreUnprocessedNodes = No
}
Analysis = {
  ProjectStates = {}
  WriteEigenvectors = No
  WriteBandOut = Yes
  MullikenAnalysis = Yes
  AtomResolvedEnergies = No
  CalculateForces = Yes
  WriteNetCharges = No
}
ExcitedState = {}
Reks = None {}
